c Random 6-CNF over 30 variables and 150 clauses
c Generated with `cnfgen`
c (C) 2012-2016 Massimo Lauria <lauria.massimo@gmail.com>
c https://massimolauria.github.io/cnfgen
c
c COMMAND LINE: cnfgen --output tmp-6-30-150.dimacs --output-format dimacs randkcnf 6 30 150
c
c sdimacs generated by gen-sdimacs
c
p cnf 30 150
r 0.5 1 2 3 4 5 6 7 8 9 10 11 12 13 14 15 0
e  16 17 18 19 20 21 22 23 24 25 26 27 28 29 30 0
1 -8 10 -16 -25 -27 0
7 11 14 16 -17 22 0
-11 -13 19 -22 -28 -30 0
-9 -17 18 19 22 27 0
1 13 -15 17 -23 -30 0
2 4 -16 -21 22 -27 0
-1 -7 10 -14 17 24 0
-5 13 16 17 -18 22 0
-6 13 18 -19 23 28 0
2 5 8 16 -20 -29 0
4 10 -12 -22 29 30 0
-3 10 -16 18 19 -22 0
4 -14 16 25 26 -27 0
12 -13 -15 -17 21 28 0
1 5 -6 -7 -14 -21 0
-6 -9 10 12 -23 25 0
7 10 12 13 23 25 0
-4 15 16 26 -27 -29 0
1 6 7 11 23 30 0
-1 8 -16 -19 26 28 0
1 -7 -11 19 -26 -28 0
-13 15 -18 20 -24 -26 0
3 -6 -9 16 19 -30 0
1 11 -16 18 -19 -23 0
5 -6 17 -23 26 29 0
6 -14 17 19 -22 28 0
1 5 8 14 18 -25 0
4 -6 -9 -15 -24 -26 0
-5 -7 -8 -10 16 18 0
6 -7 11 15 21 -28 0
5 7 -9 13 14 -16 0
3 -10 -11 -13 15 26 0
3 -9 14 -17 -19 -24 0
7 17 22 24 27 28 0
1 -3 11 17 -23 24 0
4 14 -17 20 -26 -30 0
3 -15 17 19 27 -28 0
1 -10 19 -21 23 29 0
-15 -17 -18 25 -29 30 0
-1 -11 13 -14 18 29 0
-3 -10 -11 18 20 -23 0
7 -13 -16 21 -23 30 0
-9 -10 16 19 -22 -30 0
-3 -7 9 -15 17 -20 0
-4 -10 13 18 -20 23 0
-6 -14 -17 18 25 -30 0
5 -8 10 23 25 -29 0
5 -11 -14 -16 -17 -23 0
-6 -7 -8 10 -20 22 0
-6 8 26 -28 -29 -30 0
1 6 9 14 15 30 0
-4 7 16 22 -25 -28 0
4 -10 -11 -20 -21 26 0
3 4 6 7 15 20 0
4 6 9 12 19 29 0
2 3 -4 -16 23 -28 0
-3 -5 8 9 -15 -24 0
-4 -17 -18 -21 -22 29 0
-1 -6 -8 15 21 -29 0
2 3 -9 12 -16 22 0
-1 2 -15 -22 28 -30 0
11 14 16 -21 -24 29 0
-3 -7 -10 19 -20 -25 0
3 7 -17 18 -19 -27 0
-9 -12 -14 -19 21 -26 0
3 4 -10 12 13 -17 0
-7 8 -11 -12 13 -28 0
-7 -19 20 -23 -26 28 0
7 15 16 -19 23 25 0
-4 5 11 -12 -13 -19 0
8 -11 14 -20 22 23 0
-18 22 -26 -27 28 -30 0
4 5 8 14 16 -30 0
2 11 -21 -23 27 30 0
2 -8 -10 16 20 26 0
6 -10 -14 -17 18 -29 0
-17 -19 -21 -22 -26 29 0
-8 9 -11 17 20 27 0
-13 15 22 25 27 -30 0
-3 -7 -15 23 -29 -30 0
-4 9 -17 -22 26 29 0
5 -9 -12 16 -19 28 0
-4 5 13 14 -17 30 0
8 12 -20 22 26 -27 0
-6 14 -24 -25 -27 -28 0
7 -9 10 17 24 -25 0
3 -6 18 -27 -28 -30 0
-4 -7 9 15 -16 -29 0
11 13 -19 20 -26 -29 0
-11 -12 -15 -17 -26 -27 0
-3 -13 17 19 -24 -27 0
-4 8 15 23 25 28 0
-3 11 13 -16 -20 -27 0
-2 8 -10 19 -24 -28 0
2 -4 8 -18 -24 27 0
6 -8 14 15 -16 25 0
3 12 -18 19 -20 25 0
1 -8 -10 13 -23 -30 0
1 -2 10 -12 -20 30 0
3 8 -9 11 -18 -30 0
1 22 -25 -26 27 -30 0
-3 -11 -13 17 27 30 0
-4 7 11 17 -22 -27 0
12 16 -23 27 -28 -30 0
-4 -6 20 -24 25 -26 0
-7 -8 11 -24 29 -30 0
-2 6 12 13 17 -29 0
-1 -7 8 -11 22 -28 0
2 4 17 19 27 -28 0
-12 16 -18 20 -23 -30 0
-3 -9 17 21 27 29 0
-5 6 8 19 20 -22 0
-2 20 23 -24 -27 30 0
4 9 -11 -20 25 28 0
2 3 -8 9 13 28 0
-3 -6 7 -12 13 -23 0
-6 -7 10 12 -17 21 0
-3 -6 9 21 -25 26 0
-13 19 21 -23 26 29 0
-1 -10 11 -17 22 -25 0
-3 -4 15 -17 28 30 0
-6 7 -16 -23 26 27 0
-3 11 17 -19 21 -23 0
-2 -5 14 -16 20 -30 0
1 4 9 21 25 -29 0
-1 4 7 14 24 25 0
2 10 19 23 -29 -30 0
4 8 -14 -26 -27 28 0
1 4 -13 22 -23 -29 0
-8 -14 -17 18 -23 -26 0
1 9 20 -22 -24 -30 0
3 8 -13 20 21 -22 0
-2 -9 -10 11 21 26 0
-8 13 -14 17 25 28 0
-3 -10 11 -21 26 -28 0
5 -6 -10 14 -22 27 0
-2 -3 -15 17 -21 -26 0
3 -5 7 10 -20 -24 0
7 -11 -12 14 -18 27 0
6 -7 -9 15 -21 -26 0
-4 -7 -9 11 -21 -28 0
-6 -11 22 -23 -28 -30 0
-12 17 22 24 28 -30 0
5 6 7 -17 18 -20 0
1 -2 3 -15 -22 -24 0
5 -12 20 23 -25 -27 0
2 -20 -22 -24 25 -30 0
-7 8 9 -16 23 28 0
2 8 22 23 -28 -30 0
-3 6 -16 21 22 28 0
